algorithms_of_dicrete_optimalisation/L4-max_flow/hypercube_3.lp.out
Problem:    
Rows:       6
Columns:    12
Non-zeros:  18
Status:     OPTIMAL
Objective:  Max_Flow = 5 (MAXimum)

   No.   Row name   St   Activity     Lower bound   Upper bound    Marginal
------ ------------ -- ------------- ------------- ------------- -------------
     1 Conservation_1
                    NS             0             0             =             1 
     2 Conservation_2
                    NS             0             0             =             1 
     3 Conservation_3
                    NS             0             0             =         < eps
     4 Conservation_4
                    NS             0             0             =         < eps
     5 Conservation_5
                    NS             0             0             =             1 
     6 Conservation_6
                    NS             0             0             =         < eps

   No. Column name  St   Activity     Lower bound   Upper bound    Marginal
------ ------------ -- ------------- ------------- ------------- -------------
     1 f_0_1        B              2             0             6 
     2 f_0_2        B              2             0             8 
     3 f_0_4        NU             1             0             1             1 
     4 f_1_3        NU             1             0             1             1 
     5 f_1_5        B              1             0             3 
     6 f_2_3        NU             1             0             1             1 
     7 f_2_6        NU             1             0             1             1 
     8 f_3_7        B              2             0             8 
     9 f_4_5        NL             0             0             4            -1 
    10 f_4_6        B              1             0             1 
    11 f_5_7        NU             1             0             1             1 
    12 f_6_7        B              2             0             2 

Karush-Kuhn-Tucker optimality conditions:

KKT.PE: max.abs.err = 0.00e+00 on row 0
        max.rel.err = 0.00e+00 on row 0
        High quality

KKT.PB: max.abs.err = 0.00e+00 on row 0
        max.rel.err = 0.00e+00 on row 0
        High quality

KKT.DE: max.abs.err = 0.00e+00 on column 0
        max.rel.err = 0.00e+00 on column 0
        High quality

KKT.DB: max.abs.err = 0.00e+00 on row 0
        max.rel.err = 0.00e+00 on row 0
        High quality

End of output
